 &control
    calculation = 'scf'
    restart_mode='from_scratch',
    prefix='Si',
    pseudo_dir = './'
    outdir = './'
 /
 &system    
    ibrav=  2, 
    celldm(1)= 10.4, 
    nat=  2, 
    ntyp= 1,
    ecutwfc= 40.0
 /
 &electrons
    mixing_mode = 'plain'
    mixing_beta = 0.7 
    conv_thr =  1.0d-8
 /

ATOMIC_SPECIES
 Si  28.086  Si.pbe-nl-rrkjus_psl.1.0.0.UPF
ATOMIC_POSITIONS (alat)
 Si 0.00 0.00 0.00 
 Si 0.25 0.25 0.25 
K_POINTS {automatic}
  4 4 4 1 1 1
