&DOS
  prefix='C',
  outdir='./',
  fildos='C.dos.dat',
  emin=-9.0,
  emax=16.0
/
