&BANDS
  prefix='C',
  outdir='./',
  filband='C.dat'
/
