 &control
    calculation = 'bands'
    restart_mode='from_scratch',
    prefix='Si',
    pseudo_dir = './'
    outdir = './'
    verbosity = 'high'
 /
 &system
    ibrav=  2, celldm(1) =10.261213, nat=  2, ntyp= 1,
    ecutwfc =40.0
 /
 &electrons
    mixing_mode = 'plain'
    mixing_beta = 0.7
    conv_thr =  1.0d-8
 /

ATOMIC_SPECIES
 Si  28.086   Si.pbe-nl-rrkjus_psl.1.0.0.UPF
ATOMIC_POSITIONS (alat)
 Si 0.00 0.00 0.00
 Si 0.25 0.25 0.25

K_POINTS {crystal_b}
6
  0.50  0.25  0.75  20 !W
  0.00  0.00  0.00  20 !G
  0.50  0.00  0.50  20 !X
  0.50  0.25  0.75  20 !W
  0.50  0.50  0.50  20 !L
  0.00  0.00  0.00  20 !G
