&BANDS
  prefix='Si',
  outdir='./',
  filband='Si.dat'
/
